# Solution for model F-JSSP-SDST
# Objective value = 8959
B0(13) 0
B1(19) 0
B2(25) 1
B3(20) 0
B4(21) 0
B5(18) 1
B6(18) 1
B7(25) 0
B8(16) 0
B9(13) 1
B10(23) 0
B11(23) 0
B12(20) 1
B13(25) 0
B14(17) 1
B15(17) 0
B16(12) 0
B17(20) 1
B18(19) 1
B19(25) 0
B20(19) 0
B21(18) 0
B22(25) 1
B23(17) 0
B24(12) 0
B25(20) 1
B26(24) 0
B27(26) 1
B28(19) 1
B29(17) 0
B30(18) 0
B31(24) 0
B32(12) 1
B33(19) 0
B34(21) 0
B35(25) 1
B36(24) 0
B37(17) 1
B38(17) 0
B39(22) 1
B40(24) 0
B41(20) 0
B42(20) 0
B43(24) 1
B44(25) 0
B45(24) 1
B46(17) 0
B47(17) 0
B48(23) 1
B49(21) 0
B50(24) 1
B51(25) 0
B52(24) 0
B53(17) 0
B54(17) 1
B55(20) 1
B56(24) 0
B57(18) 1
B58(26) 0
B59(24) 0
B60(16) 0
B61(17) 1
B62(2) 0
B63(2) 0
B64(2) 0
B65(2) 0
B66(2) 1
B67(2) 1
B68(2) 0
B69(2) 0
B70(2) 1
B71(2) 1
B72(2) 1
B73(2) 1
B74(2) 0
B75(2) 1
B76(2) 1
B77(2) 0
B78(2) 0
B79(2) 1
B80(2) 0
B81(2) 0
B82(2) 0
B83(2) 0
B84(2) 0
B85(2) 1
B86(2) 0
B87(2) 0
B88(2) 0
B89(2) 1
B90(2) 0
B91(2) 0
B92(2) 0
B93(2) 0
B94(2) 0
B95(2) 1
B96(2) 0
B97(2) 0
B98(2) 0
B99(2) 0
B100(2) 0
B101(2) 1
B102(2) 0
B103(2) 0
B104(2) 0
B105(2) 0
B106(2) 0
B107(2) 0
B108(2) 0
B109(2) 0
B110(2) 0
B111(2) 1
B112(2) 1
B113(2) 0
B114(2) 0
B115(2) 1
B116(2) 0
B117(2) 0
B118(2) 0
B119(2) 0
B120(2) 0
B121(2) 0
B122(2) 0
B123(2) 1
B124(2) 0
B125(2) 0
B126(2) 0
B127(2) 1
B128(2) 0
B129(2) 1
B130(2) 0
B131(2) 1
B132(2) 0
B133(2) 0
B134(2) 0
B135(2) 0
B136(2) 1
B137(2) 1
B138(2) 1
B139(2) 0
B140(2) 1
B141(2) 1
B142(2) 1
B143(2) 0
B144(2) 1
B145(2) 1
B146(2) 0
B147(2) 0
B148(2) 1
B149(2) 0
B150(2) 0
B151(2) 0
B152(2) 1
B153(2) 0
B154(2) 0
B155(2) 1
B156(2) 0
B157(2) 1
B158(2) 0
B159(2) 0
B160(2) 1
B161(2) 0
B162(2) 1
B163(2) 0
B164(2) 0
B165(2) 1
B166(2) 0
B167(2) 1
B168(2) 0
B169(2) 0
B170(2) 1
B171(2) 0
B172(2) 0
B173(2) 0
B174(2) 1
B175(2) 1
B176(2) 0
B177(2) 0
B178(2) 0
B179(2) 0
B180(2) 0
B181(2) 1
B182(2) 1
B183(2) 0
B184(2) 0
B185(2) 1
B186(2) 0
B187(2) 1
B188(2) 1
B189(2) 0
B190(2) 0
B191(2) 0
B192(2) 1
B193(2) 0
B194(2) 1
B195(2) 0
B196(2) 0
B197(2) 1
B198(2) 1
B199(2) 0
B200(2) 1
B201(2) 1
B202(2) 1
B203(2) 0
B204(2) 0
B205(2) 1
B206(2) 1
B207(2) 0
B208(2) 0
B209(2) 1
B210(2) 0
B211(2) 0
B212(2) 1
B213(2) 0
B214(2) 0
B215(2) 0
B216(2) 1
B217(2) 1
B218(2) 0
B219(2) 0
B220(2) 0
B221(2) 0
B222(2) 0
B223(2) 1
B224(2) 1
B225(2) 0
B226(2) 0
B227(2) 1
B228(2) 0
B229(2) 0
B230(2) 0
B231(2) 0
B232(2) 0
B233(2) 0
B234(2) 1
B235(2) 0
B236(2) 1
B237(2) 0
B238(2) 0
B239(2) 1
B240(2) 0
B241(2) 1
B242(2) 1
B243(2) 0
B244(2) 0
B245(2) 1
B246(2) 1
B247(2) 0
B248(2) 0
B249(2) 0
B250(2) 0
B251(2) 0
B252(2) 1
B253(2) 1
B254(2) 0
B255(2) 0
B256(2) 0
B257(2) 0
B258(2) 0
B259(2) 0
B260(2) 1
B261(2) 0
B262(2) 0
B263(2) 0
B264(2) 1
B265(2) 0
B266(2) 0
B267(2) 0
B268(2) 1
B269(2) 1
B270(2) 0
B271(2) 1
B272(2) 1
B273(2) 0
B274(2) 0
B275(2) 0
B276(2) 0
B277(2) 1
B278(2) 0
B279(2) 1
B280(2) 0
B281(2) 1
B282(2) 1
B283(2) 1
B284(2) 0
B285(2) 0
B286(2) 0
B287(2) 0
B288(2) 0
B289(2) 0
B290(2) 1
B291(2) 0
B292(2) 0
B293(2) 0
B294(2) 0
B295(2) 0
B296(2) 0
B297(2) 0
B298(2) 1
B299(2) 1
B300(2) 1
B301(2) 0
B302(2) 0
B303(2) 1
B304(2) 0
B305(2) 1
B306(2) 0
C307(13) 0
C308(19) 0
C309(25) 0
C310(22) 0
C311(22) 0
C312(20) 100
C313(20) 260
C314(28) 0
C315(18) 0
C316(13) 145
C317(23) 0
C318(24) 0
C319(22) 359
C320(26) 0
C321(18) 525
C322(18) 0
C323(12) 0
C324(20) 82
C325(20) 238
C326(26) 0
C327(20) 0
C328(19) 0
C329(27) 383
C330(19) 0
C331(12) 0
C332(20) 0
C333(25) 0
C334(27) 187
C335(20) 431
C336(18) 0
C337(18) 0
C338(24) 0
C339(12) 0
C340(20) 0
C341(22) 0
C342(26) 128
C343(25) 0
C344(19) 175
C345(19) 0
C346(22) 156
C347(24) 0
C348(20) 0
C349(22) 0
C350(26) 412
C351(28) 0
C352(25) 535
C353(19) 0
C354(19) 0
C355(23) 114
C356(21) 0
C357(25) 277
C358(27) 0
C359(25) 0
C360(19) 0
C361(19) 401
C362(20) 0
C363(24) 0
C364(19) 281
C365(27) 0
C366(26) 0
C367(18) 0
C368(20) 590
C369(1) 8959
